NAME /Users/henri/Research/solvers/instances/idol-instances/robust/collection/cbp_Subramanyam_et_al_2020/CapBud_N30_9/models/uncertain_technology_matrix/
ROWS
 N  OBJ
 L  capacity
 L  c_5920
 L  c_5921
 L  c_5922
 L  c_5923
 L  c_5924
 L  c_5925
 L  c_5926
 L  c_5927
 L  c_5928
 L  c_5929
 L  c_5930
 L  c_5931
 L  c_5932
 L  c_5933
 L  c_5934
 L  c_5935
 L  c_5936
 L  c_5937
 L  c_5938
 L  c_5939
 L  c_5940
 L  c_5941
 L  c_5942
 L  c_5943
 L  c_5944
 L  c_5945
 L  c_5946
 L  c_5947
 L  c_5948
 L  c_5949
COLUMNS
    MARKER    'MARKER'                 'INTORG'
    x_0        OBJ        8.74214
    x_0        c_5920     1
    x_0        capacity   1.74843
    x_1        OBJ        2.6781
    x_1        c_5921     1
    x_1        capacity   0.535619
    x_2        OBJ        1.15581
    x_2        c_5922     1
    x_2        capacity   0.231161
    x_3        OBJ        8.02222
    x_3        c_5923     1
    x_3        capacity   1.60444
    x_4        OBJ        7.6492
    x_4        c_5924     1
    x_4        capacity   1.52984
    x_5        OBJ        3.12608
    x_5        c_5925     1
    x_5        capacity   0.625216
    x_6        OBJ        6.13909
    x_6        c_5926     1
    x_6        capacity   1.22782
    x_7        OBJ        4.0418
    x_7        c_5927     1
    x_7        capacity   0.808361
    x_8        OBJ        6.14144
    x_8        c_5928     1
    x_8        capacity   1.22829
    x_9        OBJ        1.1473
    x_9        c_5929     1
    x_9        capacity   0.22946
    x_10       OBJ        7.34188
    x_10       c_5930     1
    x_10       capacity   1.46838
    x_11       OBJ        2.85928
    x_11       c_5931     1
    x_11       capacity   0.571856
    x_12       OBJ        8.18733
    x_12       c_5932     1
    x_12       capacity   1.63747
    x_13       OBJ        4.94751
    x_13       c_5933     1
    x_13       capacity   0.989502
    x_14       OBJ        6.60888
    x_14       c_5934     1
    x_14       capacity   1.32178
    x_15       OBJ        7.39668
    x_15       c_5935     1
    x_15       capacity   1.47934
    x_16       OBJ        7.74577
    x_16       c_5936     1
    x_16       capacity   1.54915
    x_17       OBJ        9.26953
    x_17       c_5937     1
    x_17       capacity   1.85391
    x_18       OBJ        6.85693
    x_18       c_5938     1
    x_18       capacity   1.37139
    x_19       OBJ        5.04237
    x_19       c_5939     1
    x_19       capacity   1.00847
    x_20       OBJ        9.0842
    x_20       c_5940     1
    x_20       capacity   1.81684
    x_21       OBJ        3.33934
    x_21       c_5941     1
    x_21       capacity   0.667868
    x_22       OBJ        9.53232
    x_22       c_5942     1
    x_22       capacity   1.90646
    x_23       OBJ        1.38237
    x_23       c_5943     1
    x_23       capacity   0.276475
    x_24       OBJ        5.39081
    x_24       c_5944     1
    x_24       capacity   1.07816
    x_25       OBJ        8.8502
    x_25       c_5945     1
    x_25       capacity   1.77004
    x_26       OBJ        5.68667
    x_26       c_5946     1
    x_26       capacity   1.13733
    x_27       OBJ        2.08468
    x_27       c_5947     1
    x_27       capacity   0.416935
    x_28       OBJ        5.91137
    x_28       c_5948     1
    x_28       capacity   1.18227
    x_29       OBJ        4.49635
    x_29       c_5949     1
    x_29       capacity   0.89927
    y_0        OBJ        6.99371
    y_0        c_5920     1
    y_0        capacity   1.74843
    y_1        OBJ        2.14248
    y_1        c_5921     1
    y_1        capacity   0.535619
    y_2        OBJ        0.924645
    y_2        c_5922     1
    y_2        capacity   0.231161
    y_3        OBJ        6.41777
    y_3        c_5923     1
    y_3        capacity   1.60444
    y_4        OBJ        6.11936
    y_4        c_5924     1
    y_4        capacity   1.52984
    y_5        OBJ        2.50086
    y_5        c_5925     1
    y_5        capacity   0.625216
    y_6        OBJ        4.91127
    y_6        c_5926     1
    y_6        capacity   1.22782
    y_7        OBJ        3.23344
    y_7        c_5927     1
    y_7        capacity   0.808361
    y_8        OBJ        4.91315
    y_8        c_5928     1
    y_8        capacity   1.22829
    y_9        OBJ        0.917839
    y_9        c_5929     1
    y_9        capacity   0.22946
    y_10       OBJ        5.8735
    y_10       c_5930     1
    y_10       capacity   1.46838
    y_11       OBJ        2.28742
    y_11       c_5931     1
    y_11       capacity   0.571856
    y_12       OBJ        6.54986
    y_12       c_5932     1
    y_12       capacity   1.63747
    y_13       OBJ        3.95801
    y_13       c_5933     1
    y_13       capacity   0.989502
    y_14       OBJ        5.2871
    y_14       c_5934     1
    y_14       capacity   1.32178
    y_15       OBJ        5.91735
    y_15       c_5935     1
    y_15       capacity   1.47934
    y_16       OBJ        6.19661
    y_16       c_5936     1
    y_16       capacity   1.54915
    y_17       OBJ        7.41562
    y_17       c_5937     1
    y_17       capacity   1.85391
    y_18       OBJ        5.48554
    y_18       c_5938     1
    y_18       capacity   1.37139
    y_19       OBJ        4.03389
    y_19       c_5939     1
    y_19       capacity   1.00847
    y_20       OBJ        7.26736
    y_20       c_5940     1
    y_20       capacity   1.81684
    y_21       OBJ        2.67147
    y_21       c_5941     1
    y_21       capacity   0.667868
    y_22       OBJ        7.62585
    y_22       c_5942     1
    y_22       capacity   1.90646
    y_23       OBJ        1.1059
    y_23       c_5943     1
    y_23       capacity   0.276475
    y_24       OBJ        4.31265
    y_24       c_5944     1
    y_24       capacity   1.07816
    y_25       OBJ        7.08016
    y_25       c_5945     1
    y_25       capacity   1.77004
    y_26       OBJ        4.54933
    y_26       c_5946     1
    y_26       capacity   1.13733
    y_27       OBJ        1.66774
    y_27       c_5947     1
    y_27       capacity   0.416935
    y_28       OBJ        4.72909
    y_28       c_5948     1
    y_28       capacity   1.18227
    y_29       OBJ        3.59708
    y_29       c_5949     1
    y_29       capacity   0.89927
    MARKER    'MARKER'                 'INTEND'
RHS
    RHS       capacity   85.4288
    RHS       c_5920     1
    RHS       c_5921     1
    RHS       c_5922     1
    RHS       c_5923     1
    RHS       c_5924     1
    RHS       c_5925     1
    RHS       c_5926     1
    RHS       c_5927     1
    RHS       c_5928     1
    RHS       c_5929     1
    RHS       c_5930     1
    RHS       c_5931     1
    RHS       c_5932     1
    RHS       c_5933     1
    RHS       c_5934     1
    RHS       c_5935     1
    RHS       c_5936     1
    RHS       c_5937     1
    RHS       c_5938     1
    RHS       c_5939     1
    RHS       c_5940     1
    RHS       c_5941     1
    RHS       c_5942     1
    RHS       c_5943     1
    RHS       c_5944     1
    RHS       c_5945     1
    RHS       c_5946     1
    RHS       c_5947     1
    RHS       c_5948     1
    RHS       c_5949     1
BOUNDS
 LI BND       x_0        0
 UI BND       x_0        1
 LI BND       x_1        0
 UI BND       x_1        1
 LI BND       x_2        0
 UI BND       x_2        1
 LI BND       x_3        0
 UI BND       x_3        1
 LI BND       x_4        0
 UI BND       x_4        1
 LI BND       x_5        0
 UI BND       x_5        1
 LI BND       x_6        0
 UI BND       x_6        1
 LI BND       x_7        0
 UI BND       x_7        1
 LI BND       x_8        0
 UI BND       x_8        1
 LI BND       x_9        0
 UI BND       x_9        1
 LI BND       x_10       0
 UI BND       x_10       1
 LI BND       x_11       0
 UI BND       x_11       1
 LI BND       x_12       0
 UI BND       x_12       1
 LI BND       x_13       0
 UI BND       x_13       1
 LI BND       x_14       0
 UI BND       x_14       1
 LI BND       x_15       0
 UI BND       x_15       1
 LI BND       x_16       0
 UI BND       x_16       1
 LI BND       x_17       0
 UI BND       x_17       1
 LI BND       x_18       0
 UI BND       x_18       1
 LI BND       x_19       0
 UI BND       x_19       1
 LI BND       x_20       0
 UI BND       x_20       1
 LI BND       x_21       0
 UI BND       x_21       1
 LI BND       x_22       0
 UI BND       x_22       1
 LI BND       x_23       0
 UI BND       x_23       1
 LI BND       x_24       0
 UI BND       x_24       1
 LI BND       x_25       0
 UI BND       x_25       1
 LI BND       x_26       0
 UI BND       x_26       1
 LI BND       x_27       0
 UI BND       x_27       1
 LI BND       x_28       0
 UI BND       x_28       1
 LI BND       x_29       0
 UI BND       x_29       1
 LI BND       y_0        0
 UI BND       y_0        1
 LI BND       y_1        0
 UI BND       y_1        1
 LI BND       y_2        0
 UI BND       y_2        1
 LI BND       y_3        0
 UI BND       y_3        1
 LI BND       y_4        0
 UI BND       y_4        1
 LI BND       y_5        0
 UI BND       y_5        1
 LI BND       y_6        0
 UI BND       y_6        1
 LI BND       y_7        0
 UI BND       y_7        1
 LI BND       y_8        0
 UI BND       y_8        1
 LI BND       y_9        0
 UI BND       y_9        1
 LI BND       y_10       0
 UI BND       y_10       1
 LI BND       y_11       0
 UI BND       y_11       1
 LI BND       y_12       0
 UI BND       y_12       1
 LI BND       y_13       0
 UI BND       y_13       1
 LI BND       y_14       0
 UI BND       y_14       1
 LI BND       y_15       0
 UI BND       y_15       1
 LI BND       y_16       0
 UI BND       y_16       1
 LI BND       y_17       0
 UI BND       y_17       1
 LI BND       y_18       0
 UI BND       y_18       1
 LI BND       y_19       0
 UI BND       y_19       1
 LI BND       y_20       0
 UI BND       y_20       1
 LI BND       y_21       0
 UI BND       y_21       1
 LI BND       y_22       0
 UI BND       y_22       1
 LI BND       y_23       0
 UI BND       y_23       1
 LI BND       y_24       0
 UI BND       y_24       1
 LI BND       y_25       0
 UI BND       y_25       1
 LI BND       y_26       0
 UI BND       y_26       1
 LI BND       y_27       0
 UI BND       y_27       1
 LI BND       y_28       0
 UI BND       y_28       1
 LI BND       y_29       0
 UI BND       y_29       1
ENDATA
